
Gurobi 11.0.3 (linux64) logging started Wed Apr 15 22:13:38 2026

Set parameter LogFile to value "tree/results/dmtl/dmtl_depth-4_run-4/Full MIP/LogFile_FullModel.txt"
Gurobi Optimizer version 11.0.3 build v11.0.3rc0 (linux64 - "CentOS Linux 7 (Core)")

CPU model: Intel(R) Xeon(R) Platinum 8260 CPU @ 2.40GHz, instruction set [SSE2|AVX|AVX2|AVX512]
Thread count: 96 physical cores, 192 logical processors, using up to 32 threads

Optimize a model with 57993 rows, 35994 columns and 1876479 nonzeros
Model fingerprint: 0xf1fd1e16
Model has 4288 general constraints
Variable types: 22524 continuous, 13470 integer (13470 binary)
Coefficient statistics:
  Matrix range     [4e-03, 1e+04]
  Objective range  [4e-03, 1e+04]
  Bounds range     [1e+00, 6e+02]
  RHS range        [1e-04, 1e+03]

User MIP start produced solution with objective 0.910448 (0.50s)
Loaded user MIP start with objective 0.910448

Presolve added 4272 rows and 17151 columns
Presolve time: 2.38s
Presolved: 62265 rows, 53145 columns, 1910732 nonzeros
Presolved model has 17152 SOS constraint(s)
Variable types: 22523 continuous, 30622 integer (30622 binary)

Deterministic concurrent LP optimizer: primal simplex, dual simplex, and barrier
Showing barrier log only...

Root relaxation presolved: 62265 rows, 53145 columns, 1910732 nonzeros

Root barrier log...

Ordering time: 0.09s

Barrier statistics:
 Dense cols : 525
 AA' NZ     : 1.928e+06
 Factor NZ  : 7.773e+06 (roughly 120 MB of memory)
 Factor Ops : 1.122e+09 (less than 1 second per iteration)
 Threads    : 30

                  Objective                Residual
Iter       Primal          Dual         Primal    Dual     Compl     Time
   0   9.60121712e+02  8.34372957e+08  3.40e+04 5.97e-02  7.74e+05     5s
   1   9.60298308e+01  1.33677701e+09  1.37e+04 6.47e+01  2.87e+05     6s
   2   1.25180350e+01  1.32589146e+09  1.56e+03 1.26e+01  4.18e+04     6s
   3   2.19078505e+00  5.27551960e+08  1.82e+02 1.23e+00  6.41e+03     6s
   4   7.21357936e-01  7.33265635e+07  1.98e+01 1.20e-01  7.29e+02     7s
   5   4.83887888e-01  9.94621477e+06  1.30e+00 1.33e-02  8.95e+01     7s
   6   4.59264969e-01  1.07020745e+06  5.20e-02 1.33e-03  9.18e+00     7s
   7   4.57736089e-01  1.08213257e+05  5.15e-03 1.34e-04  9.23e-01     7s
   8   4.66703857e-01  1.18877834e+04  5.10e-04 1.47e-05  1.01e-01     7s
   9   5.76188715e-01  1.57788072e+03  5.06e-05 1.94e-06  1.34e-02     8s
  10   9.23568665e-01  2.83738892e+02  5.01e-06 3.09e-07  2.41e-03     8s
  11   9.92356866e-01  2.95483763e+01  4.97e-07 3.09e-08  2.43e-04     8s
  12   9.99235687e-01  3.85486498e+00  4.97e-08 3.09e-09  2.43e-05     9s
  13   9.99923569e-01  1.28814783e+00  4.92e-09 3.09e-10  2.45e-06     9s
  14   9.99992357e-01  1.02881478e+00  4.93e-10 3.09e-11  2.45e-07     9s
  15   9.99999236e-01  1.00290834e+00  4.91e-11 3.09e-12  2.47e-08    10s
  16   9.99999924e-01  1.00029083e+00  5.23e-12 3.09e-13  2.47e-09    10s
  17   9.99999992e-01  1.00002908e+00  9.09e-13 3.09e-14  2.47e-10    10s
  18   9.99999999e-01  1.00000291e+00  4.55e-13 3.09e-15  2.47e-11    11s
  19   1.00000000e+00  1.00000029e+00  4.55e-13 3.10e-16  2.47e-12    11s
  20   1.00000000e+00  1.00000003e+00  4.26e-13 3.10e-17  2.47e-13    12s
  21   1.00000000e+00  1.00000000e+00  3.98e-13 3.11e-18  2.47e-14    12s

Barrier solved model in 21 iterations and 12.23 seconds (10.12 work units)
Optimal objective 1.00000000e+00


Root crossover log...

    2579 DPushes remaining with DInf 0.0000000e+00                12s

   21500 PPushes remaining with PInf 0.0000000e+00                12s
       0 PPushes remaining with PInf 0.0000000e+00                14s

  Push phase complete: Pinf 0.0000000e+00, Dinf 0.0000000e+00     14s


Root simplex log...

Iteration    Objective       Primal Inf.    Dual Inf.      Time
   21503    1.0000000e+00   0.000000e+00   0.000000e+00     15s
   21503    1.0000000e+00   0.000000e+00   0.000000e+00     15s
Concurrent spin time: 0.38s

Solved with barrier

Root relaxation: objective 1.000000e+00, 21503 iterations, 11.68 seconds (10.38 work units)
Total elapsed time = 66.56s (DegenMoves)

    Nodes    |    Current Node    |     Objective Bounds      |     Work
 Expl Unexpl |  Obj  Depth IntInf | Incumbent    BestBd   Gap | It/Node Time

     0     0    1.00000    0 3155    0.91045    1.00000  9.84%     -   67s
     0     2    1.00000    0 3155    0.91045    1.00000  9.84%     -  229s
     1     4    1.00000    1 1998    0.91045    1.00000  9.84% 29068  448s
     3     8    1.00000    2 2353    0.91045    1.00000  9.84% 21413  935s
     7    16    1.00000    3   85    0.91045    1.00000  9.84% 14278 1299s
    15    32    1.00000    4   61    0.91045    1.00000  9.84% 12009 1889s
    31    64    1.00000    5   60    0.91045    1.00000  9.84%  9226 2190s
    63    96    1.00000    6   59    0.91045    1.00000  9.84%  5485 3339s
    95   126    1.00000    7   60    0.91045    1.00000  9.84%  9518 3600s

Explored 125 nodes (946435 simplex iterations) in 3600.69 seconds (5586.79 work units)
Thread count was 32 (of 192 available processors)

Solution count 1: 0.910448 

Time limit reached
Best objective 9.104477611940e-01, best bound 1.000000000000e+00, gap 9.8361%

User-callback calls 1807509, time in user-callback 9.86 sec
